solution status: time limit reached
objective value:                          51302.48132
y#2                                                 1 	(obj:5700)
y#5                                                 1 	(obj:5700)
y#18                                                1 	(obj:5700)
y#20                                                1 	(obj:5700)
y#21                                                1 	(obj:5700)
y#22                                                1 	(obj:5700)
y#26                                                1 	(obj:5700)
y#40                                                1 	(obj:5700)
y#45                                                1 	(obj:5700)
x#1#20                                              1 	(obj:0.02142)
x#2#20                                              1 	(obj:0.03026)
x#3#18                                              1 	(obj:0.03026)
x#4#5                                               1 	(obj:0.02312)
x#5#2                                               1 	(obj:0.01836)
x#6#5                                               1 	(obj:0.01309)
x#7#45                                              1 	(obj:0.01785)
x#8#40                                              1 	(obj:0.03893)
x#9#20                                              1 	(obj:0.03332)
x#10#22                                             1 	(obj:0.02278)
x#11#21                                             1 	(obj:0.02397)
x#12#5                                              1 	(obj:0.04556)
x#13#18                                             1 	(obj:0.00901)
x#14#2                                              1 	(obj:0.02176)
x#15#21                                             1 	(obj:0.02958)
x#16#18                                             1 	(obj:0.05678)
x#17#18                                             1 	(obj:0.02074)
x#18#40                                             1 	(obj:0.00459)
x#19#22                                             1 	(obj:0.01241)
x#20#40                                             1 	(obj:0.02397)
x#21#20                                             1 	(obj:0.01326)
x#22#20                                             1 	(obj:0.0085)
x#23#45                                             1 	(obj:0.02516)
x#24#22                                             1 	(obj:0.02125)
x#25#5                                              1 	(obj:0.04624)
x#26#2                                              1 	(obj:0.01428)
x#27#2                                              1 	(obj:0.00493)
x#28#21                                             1 	(obj:0.03349)
x#29#5                                              1 	(obj:0.02465)
x#30#21                                             1 	(obj:0.01938)
x#31#45                                             1 	(obj:0.03553)
x#32#21                                             1 	(obj:0.03349)
x#33#22                                             1 	(obj:0.02771)
x#34#45                                             1 	(obj:0.05848)
x#35#2                                              1 	(obj:0.02924)
x#36#45                                             1 	(obj:0.03978)
x#37#5                                              1 	(obj:0.01547)
x#38#18                                             1 	(obj:0.01921)
x#39#21                                             1 	(obj:0.04981)
x#40#22                                             1 	(obj:0.03349)
x#41#26                                             1 	(obj:0.00442)
x#42#22                                             1 	(obj:0.03009)
x#43#45                                             1 	(obj:0.03621)
x#44#22                                             1 	(obj:0.02006)
x#45#26                                             1 	(obj:0.02499)
x#46#21                                             1 	(obj:0.04216)
x#47#5                                              1 	(obj:0.01394)
x#48#40                                             1 	(obj:0.02822)
x#49#5                                              1 	(obj:0.02108)
x#50#26                                             1 	(obj:0.02142)
x#51#40                                             1 	(obj:0.03417)
x#52#21                                             1 	(obj:0.03196)
x#53#26                                             1 	(obj:0.04284)
x#54#40                                             1 	(obj:0.03417)
x#55#20                                             1 	(obj:0.00799)
x#56#26                                             1 	(obj:0.01615)
x#57#45                                             1 	(obj:0.0085)
x#58#21                                             1 	(obj:0.02006)
x#59#26                                             1 	(obj:0.0136)
x#60#2                                              1 	(obj:0.03961)
x#61#20                                             1 	(obj:0.01632)
x#62#26                                             1 	(obj:0.01496)
x#63#20                                             1 	(obj:0.01428)
x#64#26                                             1 	(obj:0.03094)
x#65#21                                             1 	(obj:0.02142)
x#66#40                                             1 	(obj:0.01819)
x#67#26                                             1 	(obj:0.02057)
x#68#5                                              1 	(obj:0.01309)
x#69#26                                             1 	(obj:0.00646)
x#70#20                                             1 	(obj:0.03111)
x#71#5                                              1 	(obj:0.06341)
x#72#20                                             1 	(obj:0.01581)
x#73#45                                             1 	(obj:0.04182)
x#74#20                                             1 	(obj:0.04216)
x#75#45                                             1 	(obj:0.02142)
x#76#45                                             1 	(obj:0.03434)
x#77#18                                             1 	(obj:0.01853)
x#78#5                                              1 	(obj:0.01309)
x#79#22                                             1 	(obj:0.0272)
x#80#22                                             1 	(obj:0.0153)
x#81#22                                             1 	(obj:0.01088)
x#82#18                                             1 	(obj:0.02567)
x#83#2                                              1 	(obj:0.00748)
x#84#18                                             1 	(obj:0.03689)
x#85#18                                             1 	(obj:0.01326)
x#86#22                                             1 	(obj:0.01836)
x#87#5                                              1 	(obj:0.02261)
x#88#40                                             1 	(obj:0.0459)
x#89#21                                             1 	(obj:0.01479)
x#90#40                                             1 	(obj:0.02754)
x#91#20                                             1 	(obj:0.03893)
x#92#45                                             1 	(obj:0.02142)
x#93#21                                             1 	(obj:0.01921)
x#94#18                                             1 	(obj:0.03009)
x#95#18                                             1 	(obj:0.01564)
x#96#40                                             1 	(obj:0.00357)
x#97#22                                             1 	(obj:0.01989)
x#98#26                                             1 	(obj:0.02567)
x#99#2                                              1 	(obj:0.02176)
x#100#2                                             1 	(obj:0.03859)
